\ SCIP STATISTICS
\   Problem name     : SetCover-100-150
\   Variables        : 150 (150 binary, 0 integer, 0 implicit integer, 0 continuous)
\   Constraints      : 100
Minimize
 Obj: +82 x0 +45 x1 +80 x2 +71 x3 +96 x4 +48 x5 +54 x6 +44 x7 +47 x8 +30 x9 +96 x10 +31 x11 +30 x12 +10 x13
      +39 x14 +20 x15 +39 x16 +32 x17 +68 x18 +21 x19 +26 x20 +98 x21 +34 x22 +1 x23 +7 x24 +70 x25 +99 x26
      +43 x27 +72 x28 +97 x29 +47 x30 +65 x31 +33 x32 +77 x33 +46 x34 +46 x35 +19 x36 +46 x37 +34 x38
      +96 x39 +39 x40 +98 x41 +91 x42 +74 x43 +86 x44 +15 x45 +30 x46 +34 x47 +80 x48 +80 x49 +56 x50
      +15 x51 +2 x52 +5 x53 +39 x54 +93 x55 +81 x56 +27 x57 +72 x58 +41 x59 +14 x60 +26 x61 +2 x62 +33 x63
      +58 x64 +42 x65 +55 x66 +47 x67 +28 x68 +45 x69 +58 x70 +84 x71 +64 x72 +41 x73 +88 x74 +90 x75
      +42 x76 +52 x77 +38 x78 +46 x79 +9 x80 +68 x81 +16 x82 +93 x83 +83 x84 +71 x85 +54 x86 +21 x87 +28 x88
      +92 x89 +100 x90 +78 x91 +74 x92 +61 x93 +51 x94 +47 x95 +87 x96 +43 x97 +13 x98 +81 x99 +50 x100
      +43 x101 +92 x102 +97 x103 +5 x104 +46 x105 +31 x106 +64 x107 +2 x108 +85 x109 +91 x110 +60 x111
      +24 x112 +77 x113 +34 x114 +14 x115 +37 x116 +48 x117 +35 x118 +100 x119 +51 x120 +13 x121 +10 x122
      +34 x123 +80 x124 +36 x125 +92 x126 +48 x127 +6 x128 +28 x129 +51 x130 +92 x131 +56 x132 +49 x133
      +64 x134 +12 x135 +92 x136 +80 x137 +52 x138 +22 x139 +51 x140 +16 x141 +73 x142 +21 x143 +22 x144
      +58 x145 +11 x146 +1 x147 +94 x148 +100 x149
Subject to
 c0: +1 x4 +1 x10 +1 x27 +1 x35 +1 x36 +1 x42 +1 x69 +1 x79 +1 x86 +1 x93 +1 x95 +1 x101 +1 x102 +1 x106
  +1 x111 +1 x122 +1 x132 >= +1
 c1: +1 x1 +1 x11 +1 x19 +1 x23 +1 x39 +1 x41 +1 x45 +1 x51 +1 x56 +1 x57 +1 x77 +1 x89 +1 x91 +1 x92
  +1 x100 +1 x111 +1 x126 +1 x140 +1 x146 >= +1
 c2: +1 x6 +1 x8 +1 x22 +1 x26 +1 x32 +1 x37 +1 x41 +1 x44 +1 x57 +1 x60 +1 x63 +1 x64 +1 x67 +1 x68 +1 x90
  +1 x96 +1 x102 +1 x105 +1 x109 +1 x111 +1 x126 +1 x131 +1 x134 +1 x135 +1 x143 +1 x146 >= +1
 c3: +1 x4 +1 x14 +1 x15 +1 x17 +1 x18 +1 x21 +1 x24 +1 x25 +1 x36 +1 x37 +1 x45 +1 x48 +1 x50 +1 x57
  +1 x58 +1 x61 +1 x62 +1 x83 +1 x85 +1 x86 +1 x88 +1 x110 +1 x119 +1 x123 +1 x131 +1 x134 +1 x138 +1 x139
  +1 x142 +1 x146 >= +1
 c4: +1 x0 +1 x7 +1 x12 +1 x27 +1 x39 +1 x50 +1 x68 +1 x72 +1 x78 +1 x83 +1 x86 +1 x96 +1 x112 +1 x113
  +1 x116 +1 x132 +1 x135 >= +1
 c5: +1 x0 +1 x18 +1 x25 +1 x35 +1 x39 +1 x40 +1 x47 +1 x52 +1 x53 +1 x59 +1 x82 +1 x85 +1 x92 +1 x96
  +1 x97 +1 x107 +1 x109 +1 x114 +1 x115 +1 x125 +1 x127 >= +1
 c6: +1 x5 +1 x9 +1 x18 +1 x32 +1 x36 +1 x61 +1 x62 +1 x77 +1 x85 +1 x87 +1 x96 +1 x99 +1 x105 +1 x109
  +1 x113 +1 x120 +1 x122 +1 x124 +1 x131 +1 x132 +1 x143 +1 x146 +1 x148 >= +1
 c7: +1 x0 +1 x16 +1 x21 +1 x30 +1 x35 +1 x46 +1 x55 +1 x70 +1 x74 +1 x76 +1 x84 +1 x86 +1 x91 +1 x94
  +1 x106 +1 x109 +1 x113 +1 x114 +1 x120 +1 x127 +1 x133 +1 x134 +1 x144 +1 x148 >= +1
 c8: +1 x6 +1 x8 +1 x21 +1 x22 +1 x32 +1 x41 +1 x46 +1 x50 +1 x62 +1 x72 +1 x74 +1 x75 +1 x79 +1 x80 +1 x92
  +1 x106 +1 x107 +1 x123 +1 x126 +1 x127 +1 x134 +1 x139 +1 x145 >= +1
 c9: +1 x4 +1 x8 +1 x10 +1 x11 +1 x13 +1 x15 +1 x17 +1 x32 +1 x49 +1 x50 +1 x56 +1 x63 +1 x67 +1 x68 +1 x70
  +1 x80 +1 x85 +1 x86 +1 x88 +1 x94 +1 x95 +1 x100 +1 x101 +1 x128 +1 x130 +1 x136 +1 x137 +1 x139 +1 x144
  >= +1
 c10: +1 x2 +1 x11 +1 x15 +1 x22 +1 x25 +1 x26 +1 x31 +1 x40 +1 x50 +1 x56 +1 x61 +1 x62 +1 x63 +1 x75
  +1 x92 +1 x96 +1 x104 +1 x111 +1 x123 +1 x127 +1 x129 +1 x132 +1 x133 +1 x135 +1 x138 +1 x140 +1 x147
  >= +1
 c11: +1 x4 +1 x9 +1 x16 +1 x24 +1 x42 +1 x56 +1 x57 +1 x60 +1 x71 +1 x75 +1 x83 +1 x89 +1 x103 +1 x113
  +1 x118 +1 x119 +1 x123 +1 x131 +1 x132 >= +1
 c12: +1 x1 +1 x16 +1 x19 +1 x28 +1 x29 +1 x41 +1 x43 +1 x44 +1 x45 +1 x54 +1 x55 +1 x57 +1 x58 +1 x60
  +1 x62 +1 x64 +1 x65 +1 x70 +1 x71 +1 x76 +1 x91 +1 x96 +1 x111 +1 x121 +1 x124 +1 x125 +1 x140 +1 x141
  >= +1
 c13: +1 x5 +1 x12 +1 x13 +1 x24 +1 x40 +1 x44 +1 x45 +1 x58 +1 x62 +1 x63 +1 x68 +1 x100 +1 x101 +1 x103
  +1 x104 +1 x116 +1 x119 +1 x134 +1 x141 >= +1
 c14: +1 x5 +1 x12 +1 x31 +1 x38 +1 x43 +1 x44 +1 x50 +1 x54 +1 x82 +1 x85 +1 x93 +1 x105 +1 x106 +1 x107
  +1 x114 +1 x136 +1 x137 +1 x147 >= +1
 c15: +1 x1 +1 x6 +1 x28 +1 x35 +1 x38 +1 x40 +1 x46 +1 x68 +1 x102 +1 x109 +1 x110 +1 x116 +1 x118 +1 x124
  +1 x136 +1 x137 +1 x138 +1 x139 +1 x140 +1 x146 >= +1
 c16: +1 x3 +1 x6 +1 x8 +1 x13 +1 x20 +1 x21 +1 x24 +1 x28 +1 x32 +1 x33 +1 x54 +1 x62 +1 x71 +1 x72 +1 x75
  +1 x82 +1 x93 +1 x95 +1 x99 +1 x108 +1 x110 +1 x117 +1 x121 +1 x123 +1 x140 +1 x143 +1 x147 >= +1
 c17: +1 x5 +1 x6 +1 x9 +1 x12 +1 x43 +1 x48 +1 x55 +1 x56 +1 x72 +1 x75 +1 x76 +1 x78 +1 x88 +1 x105
  +1 x111 +1 x127 +1 x133 +1 x139 +1 x140 >= +1
 c18: +1 x3 +1 x9 +1 x26 +1 x47 +1 x48 +1 x70 +1 x72 +1 x81 +1 x89 +1 x98 +1 x110 +1 x139 +1 x142 +1 x145
  +1 x149 >= +1
 c19: +1 x5 +1 x23 +1 x31 +1 x32 +1 x33 +1 x39 +1 x50 +1 x55 +1 x62 +1 x70 +1 x76 +1 x87 +1 x88 +1 x92
  +1 x94 +1 x97 +1 x102 +1 x124 +1 x128 +1 x142 +1 x147 >= +1
 c20: +1 x1 +1 x28 +1 x29 +1 x43 +1 x68 +1 x71 +1 x82 +1 x104 +1 x109 +1 x110 +1 x119 +1 x120 +1 x134
  +1 x137 +1 x142 +1 x148 >= +1
 c21: +1 x4 +1 x7 +1 x11 +1 x17 +1 x24 +1 x35 +1 x38 +1 x39 +1 x43 +1 x50 +1 x69 +1 x84 +1 x88 +1 x98
  +1 x109 +1 x110 +1 x114 +1 x124 +1 x135 +1 x136 +1 x144 >= +1
 c22: +1 x3 +1 x10 +1 x21 +1 x24 +1 x33 +1 x42 +1 x45 +1 x46 +1 x58 +1 x62 +1 x66 +1 x69 +1 x73 +1 x74
  +1 x94 +1 x95 +1 x101 +1 x115 +1 x120 +1 x122 +1 x124 +1 x137 >= +1
 c23: +1 x2 +1 x6 +1 x7 +1 x9 +1 x12 +1 x15 +1 x18 +1 x28 +1 x32 +1 x35 +1 x44 +1 x45 +1 x46 +1 x61 +1 x65
  +1 x68 +1 x74 +1 x90 +1 x94 +1 x108 +1 x113 +1 x114 +1 x120 +1 x126 +1 x129 +1 x138 +1 x147 >= +1
 c24: +1 x2 +1 x7 +1 x10 +1 x14 +1 x18 +1 x19 +1 x29 +1 x32 +1 x51 +1 x69 +1 x81 +1 x83 +1 x103 +1 x105
  +1 x108 +1 x113 +1 x118 +1 x129 +1 x130 +1 x136 +1 x140 +1 x149 >= +1
 c25: +1 x2 +1 x8 +1 x9 +1 x34 +1 x46 +1 x55 +1 x56 +1 x81 +1 x111 +1 x112 +1 x122 +1 x149 >= +1
 c26: +1 x1 +1 x22 +1 x27 +1 x31 +1 x44 +1 x45 +1 x56 +1 x60 +1 x64 +1 x80 +1 x85 +1 x112 +1 x117 +1 x121
  +1 x126 +1 x130 +1 x136 +1 x143 >= +1
 c27: +1 x4 +1 x14 +1 x18 +1 x24 +1 x26 +1 x30 +1 x60 +1 x63 +1 x65 +1 x71 +1 x86 +1 x87 +1 x93 +1 x99
  +1 x104 +1 x109 +1 x117 +1 x121 +1 x124 +1 x127 +1 x131 +1 x133 +1 x134 >= +1
 c28: +1 x2 +1 x12 +1 x21 +1 x33 +1 x40 +1 x51 +1 x52 +1 x64 +1 x69 +1 x73 +1 x76 +1 x86 +1 x89 +1 x94
  +1 x107 +1 x108 +1 x111 +1 x139 >= +1
 c29: +1 x2 +1 x14 +1 x21 +1 x23 +1 x28 +1 x34 +1 x36 +1 x42 +1 x53 +1 x59 +1 x61 +1 x66 +1 x67 +1 x70
  +1 x78 +1 x93 +1 x100 +1 x103 +1 x104 +1 x105 +1 x106 +1 x110 +1 x122 +1 x130 +1 x135 +1 x147 +1 x149
  >= +1
 c30: +1 x5 +1 x21 +1 x24 +1 x27 +1 x29 +1 x33 +1 x36 +1 x42 +1 x44 +1 x50 +1 x56 +1 x68 +1 x83 +1 x85
  +1 x88 +1 x111 +1 x113 +1 x114 +1 x115 +1 x120 +1 x129 +1 x143 >= +1
 c31: +1 x1 +1 x23 +1 x25 +1 x31 +1 x39 +1 x52 +1 x67 +1 x69 +1 x71 +1 x87 +1 x98 +1 x108 +1 x120 +1 x124
  +1 x136 >= +1
 c32: +1 x0 +1 x14 +1 x31 +1 x33 +1 x48 +1 x49 +1 x51 +1 x61 +1 x64 +1 x84 +1 x85 +1 x96 +1 x97 +1 x104
  +1 x107 +1 x121 +1 x125 +1 x127 +1 x131 +1 x133 +1 x136 +1 x138 +1 x144 >= +1
 c33: +1 x6 +1 x21 +1 x26 +1 x31 +1 x34 +1 x41 +1 x47 +1 x51 +1 x53 +1 x60 +1 x67 +1 x68 +1 x78 +1 x98
  +1 x106 +1 x112 +1 x120 +1 x121 +1 x122 +1 x129 +1 x140 >= +1
 c34: +1 x4 +1 x8 +1 x13 +1 x14 +1 x33 +1 x34 +1 x38 +1 x43 +1 x46 +1 x48 +1 x56 +1 x61 +1 x66 +1 x73
  +1 x79 +1 x88 +1 x97 +1 x101 +1 x103 +1 x113 +1 x121 +1 x129 +1 x138 +1 x140 +1 x141 +1 x147 +1 x148
  >= +1
 c35: +1 x0 +1 x6 +1 x8 +1 x11 +1 x17 +1 x22 +1 x24 +1 x33 +1 x34 +1 x36 +1 x37 +1 x39 +1 x44 +1 x52 +1 x54
  +1 x55 +1 x58 +1 x61 +1 x62 +1 x74 +1 x75 +1 x78 +1 x82 +1 x90 +1 x110 +1 x114 +1 x118 +1 x119 +1 x121
  +1 x126 +1 x132 +1 x136 +1 x137 +1 x138 +1 x140 +1 x143 +1 x145 >= +1
 c36: +1 x5 +1 x14 +1 x23 +1 x24 +1 x35 +1 x40 +1 x50 +1 x60 +1 x61 +1 x65 +1 x77 +1 x101 +1 x111 +1 x122
  +1 x137 +1 x140 +1 x142 +1 x143 +1 x148 >= +1
 c37: +1 x5 +1 x10 +1 x12 +1 x14 +1 x16 +1 x31 +1 x33 +1 x39 +1 x67 +1 x72 +1 x75 +1 x76 +1 x77 +1 x84
  +1 x86 +1 x88 +1 x89 +1 x90 +1 x119 +1 x125 +1 x145 +1 x146 +1 x147 >= +1
 c38: +1 x2 +1 x7 +1 x9 +1 x11 +1 x25 +1 x30 +1 x47 +1 x52 +1 x59 +1 x63 +1 x72 +1 x83 +1 x96 +1 x101
  +1 x104 +1 x108 +1 x109 +1 x118 +1 x129 +1 x131 +1 x135 +1 x139 +1 x143 +1 x145 >= +1
 c39: +1 x1 +1 x6 +1 x7 +1 x16 +1 x20 +1 x36 +1 x37 +1 x38 +1 x40 +1 x43 +1 x44 +1 x51 +1 x90 +1 x96 +1 x97
  +1 x98 +1 x103 +1 x108 +1 x109 +1 x117 +1 x127 +1 x130 +1 x134 +1 x135 +1 x140 >= +1
 c40: +1 x3 +1 x18 +1 x20 +1 x21 +1 x26 +1 x29 +1 x30 +1 x35 +1 x37 +1 x51 +1 x61 +1 x68 +1 x82 +1 x88
  +1 x95 +1 x104 +1 x108 +1 x109 +1 x112 +1 x115 +1 x127 +1 x132 +1 x142 +1 x147 +1 x149 >= +1
 c41: +1 x6 +1 x7 +1 x12 +1 x15 +1 x34 +1 x38 +1 x42 +1 x43 +1 x46 +1 x49 +1 x55 +1 x74 +1 x87 +1 x95
  +1 x100 +1 x115 +1 x119 +1 x121 +1 x124 +1 x126 +1 x134 +1 x136 +1 x145 >= +1
 c42: +1 x3 +1 x11 +1 x13 +1 x28 +1 x29 +1 x39 +1 x47 +1 x52 +1 x53 +1 x62 +1 x67 +1 x75 +1 x78 +1 x83
  +1 x96 +1 x104 +1 x105 +1 x113 +1 x122 +1 x125 +1 x140 +1 x147 >= +1
 c43: +1 x2 +1 x15 +1 x17 +1 x22 +1 x24 +1 x27 +1 x28 +1 x34 +1 x38 +1 x41 +1 x62 +1 x76 +1 x80 +1 x96
  +1 x103 +1 x106 +1 x117 +1 x119 +1 x120 +1 x129 +1 x130 +1 x137 +1 x141 +1 x143 >= +1
 c44: +1 x3 +1 x10 +1 x12 +1 x42 +1 x45 +1 x47 +1 x49 +1 x50 +1 x51 +1 x60 +1 x62 +1 x66 +1 x67 +1 x75
  +1 x77 +1 x79 +1 x88 +1 x92 +1 x97 +1 x118 +1 x120 +1 x131 +1 x135 +1 x137 >= +1
 c45: +1 x6 +1 x15 +1 x16 +1 x17 +1 x37 +1 x40 +1 x44 +1 x47 +1 x52 +1 x57 +1 x66 +1 x69 +1 x73 +1 x87
  +1 x95 +1 x96 +1 x103 +1 x111 +1 x119 +1 x122 +1 x138 +1 x140 +1 x142 +1 x145 >= +1
 c46: +1 x5 +1 x13 +1 x14 +1 x28 +1 x29 +1 x39 +1 x49 +1 x55 +1 x59 +1 x69 +1 x70 +1 x73 +1 x80 +1 x84
  +1 x99 +1 x104 +1 x113 +1 x122 +1 x138 +1 x146 +1 x147 >= +1
 c47: +1 x2 +1 x15 +1 x18 +1 x22 +1 x34 +1 x35 +1 x41 +1 x49 +1 x77 +1 x80 +1 x99 +1 x113 +1 x115 +1 x116
  +1 x119 +1 x121 +1 x124 +1 x126 +1 x137 >= +1
 c48: +1 x4 +1 x7 +1 x12 +1 x31 +1 x34 +1 x35 +1 x36 +1 x42 +1 x50 +1 x60 +1 x71 +1 x72 +1 x73 +1 x75
  +1 x93 +1 x117 +1 x118 +1 x119 +1 x122 +1 x123 +1 x128 +1 x130 +1 x132 +1 x144 +1 x148 >= +1
 c49: +1 x5 +1 x27 +1 x36 +1 x39 +1 x46 +1 x57 +1 x60 +1 x68 +1 x78 +1 x81 +1 x87 +1 x91 +1 x98 +1 x100
  +1 x103 +1 x104 +1 x108 +1 x117 +1 x119 +1 x128 +1 x138 >= +1
 c50: +1 x5 +1 x9 +1 x11 +1 x13 +1 x15 +1 x27 +1 x42 +1 x66 +1 x67 +1 x80 +1 x81 +1 x84 +1 x87 +1 x89
  +1 x97 +1 x98 +1 x99 +1 x105 +1 x108 +1 x115 +1 x124 +1 x130 +1 x131 +1 x140 +1 x145 +1 x147 >= +1
 c51: +1 x3 +1 x11 +1 x14 +1 x15 +1 x21 +1 x32 +1 x36 +1 x70 +1 x76 +1 x84 +1 x86 +1 x107 +1 x109 +1 x117
  +1 x141 +1 x148 >= +1
 c52: +1 x1 +1 x7 +1 x9 +1 x16 +1 x23 +1 x26 +1 x30 +1 x31 +1 x46 +1 x65 +1 x73 +1 x79 +1 x101 +1 x102
  +1 x115 +1 x134 +1 x145 >= +1
 c53: +1 x3 +1 x27 +1 x32 +1 x36 +1 x44 +1 x49 +1 x59 +1 x72 +1 x74 +1 x81 +1 x82 +1 x100 +1 x101 +1 x106
  +1 x120 +1 x124 +1 x127 +1 x128 +1 x129 +1 x134 +1 x143 +1 x147 >= +1
 c54: +1 x4 +1 x9 +1 x17 +1 x36 +1 x40 +1 x48 +1 x51 +1 x59 +1 x66 +1 x80 +1 x82 +1 x84 +1 x91 +1 x92
  +1 x96 +1 x97 +1 x100 +1 x113 +1 x116 +1 x146 >= +1
 c55: +1 x4 +1 x9 +1 x17 +1 x20 +1 x25 +1 x26 +1 x27 +1 x36 +1 x40 +1 x47 +1 x61 +1 x85 +1 x88 +1 x98
  +1 x104 +1 x107 +1 x118 +1 x122 +1 x125 +1 x131 +1 x141 >= +1
 c56: +1 x3 +1 x7 +1 x16 +1 x24 +1 x27 +1 x38 +1 x46 +1 x51 +1 x59 +1 x60 +1 x72 +1 x74 +1 x77 +1 x79
  +1 x89 +1 x100 +1 x107 +1 x112 +1 x123 +1 x130 >= +1
 c57: +1 x0 +1 x7 +1 x15 +1 x17 +1 x18 +1 x21 +1 x27 +1 x41 +1 x59 +1 x67 +1 x88 +1 x90 +1 x95 +1 x97
  +1 x107 +1 x108 +1 x116 +1 x118 +1 x128 +1 x144 +1 x147 +1 x149 >= +1
 c58: +1 x2 +1 x15 +1 x18 +1 x26 +1 x34 +1 x35 +1 x36 +1 x37 +1 x41 +1 x43 +1 x45 +1 x69 +1 x71 +1 x74
  +1 x90 +1 x97 +1 x106 +1 x109 +1 x112 +1 x120 +1 x132 +1 x135 +1 x138 +1 x147 +1 x149 >= +1
 c59: +1 x0 +1 x9 +1 x18 +1 x22 +1 x29 +1 x31 +1 x38 +1 x51 +1 x56 +1 x57 +1 x60 +1 x66 +1 x72 +1 x77
  +1 x96 +1 x100 +1 x103 +1 x104 +1 x106 +1 x116 +1 x147 +1 x149 >= +1
 c60: +1 x4 +1 x11 +1 x27 +1 x46 +1 x53 +1 x55 +1 x57 +1 x64 +1 x68 +1 x81 +1 x85 +1 x88 +1 x91 +1 x97
  +1 x99 +1 x101 +1 x106 +1 x118 +1 x126 +1 x127 +1 x128 +1 x131 +1 x133 +1 x141 +1 x148 >= +1
 c61: +1 x0 +1 x8 +1 x15 +1 x20 +1 x28 +1 x33 +1 x36 +1 x39 +1 x43 +1 x45 +1 x47 +1 x55 +1 x59 +1 x60
  +1 x83 +1 x88 +1 x96 +1 x106 +1 x114 +1 x122 +1 x127 +1 x131 +1 x132 +1 x144 >= +1
 c62: +1 x0 +1 x15 +1 x20 +1 x29 +1 x30 +1 x53 +1 x63 +1 x64 +1 x88 +1 x94 +1 x98 +1 x111 +1 x131 +1 x134
  +1 x138 +1 x140 +1 x145 >= +1
 c63: +1 x2 +1 x8 +1 x14 +1 x16 +1 x26 +1 x30 +1 x45 +1 x49 +1 x53 +1 x63 +1 x85 +1 x90 +1 x92 +1 x94
  +1 x103 +1 x108 +1 x121 +1 x128 +1 x129 +1 x143 +1 x144 +1 x149 >= +1
 c64: +1 x5 +1 x8 +1 x13 +1 x28 +1 x31 +1 x39 +1 x42 +1 x63 +1 x67 +1 x73 +1 x80 +1 x81 +1 x89 +1 x92
  +1 x93 +1 x102 +1 x103 +1 x130 +1 x134 +1 x138 +1 x139 +1 x146 >= +1
 c65: +1 x4 +1 x20 +1 x21 +1 x22 +1 x23 +1 x26 +1 x32 +1 x40 +1 x51 +1 x66 +1 x71 +1 x74 +1 x85 +1 x93
  +1 x94 +1 x99 +1 x102 +1 x106 +1 x121 +1 x130 +1 x137 +1 x139 +1 x141 +1 x143 >= +1
 c66: +1 x0 +1 x12 +1 x13 +1 x22 +1 x30 +1 x33 +1 x36 +1 x38 +1 x43 +1 x47 +1 x53 +1 x66 +1 x70 +1 x79
  +1 x92 +1 x110 +1 x112 +1 x115 +1 x130 +1 x131 +1 x139 +1 x145 >= +1
 c67: +1 x3 +1 x9 +1 x14 +1 x25 +1 x26 +1 x31 +1 x34 +1 x42 +1 x46 +1 x58 +1 x63 +1 x66 +1 x70 +1 x73
  +1 x83 +1 x86 +1 x96 +1 x98 +1 x102 +1 x105 +1 x108 +1 x112 +1 x113 +1 x115 +1 x118 +1 x128 +1 x131
  +1 x133 +1 x137 >= +1
 c68: +1 x6 +1 x25 +1 x37 +1 x40 +1 x52 +1 x57 +1 x58 +1 x59 +1 x60 +1 x62 +1 x65 +1 x73 +1 x74 +1 x77
  +1 x81 +1 x91 +1 x93 +1 x102 +1 x120 +1 x128 +1 x134 +1 x139 +1 x144 >= +1
 c69: +1 x0 +1 x11 +1 x14 +1 x15 +1 x23 +1 x25 +1 x30 +1 x47 +1 x49 +1 x63 +1 x64 +1 x70 +1 x82 +1 x91
  +1 x92 +1 x98 +1 x109 +1 x111 +1 x112 +1 x119 +1 x122 +1 x126 +1 x131 >= +1
 c70: +1 x5 +1 x7 +1 x22 +1 x23 +1 x25 +1 x32 +1 x36 +1 x48 +1 x60 +1 x67 +1 x70 +1 x71 +1 x103 +1 x108
  +1 x113 +1 x126 +1 x130 +1 x134 >= +1
 c71: +1 x5 +1 x7 +1 x16 +1 x18 +1 x29 +1 x30 +1 x35 +1 x42 +1 x46 +1 x62 +1 x64 +1 x72 +1 x73 +1 x78
  +1 x94 +1 x97 +1 x115 +1 x116 +1 x119 +1 x123 +1 x125 +1 x128 +1 x131 +1 x132 +1 x148 >= +1
 c72: +1 x6 +1 x10 +1 x13 +1 x21 +1 x24 +1 x31 +1 x32 +1 x34 +1 x35 +1 x44 +1 x49 +1 x75 +1 x79 +1 x83
  +1 x87 +1 x91 +1 x96 +1 x97 +1 x104 +1 x105 +1 x121 +1 x129 +1 x131 +1 x137 +1 x144 >= +1
 c73: +1 x5 +1 x9 +1 x15 +1 x22 +1 x27 +1 x31 +1 x42 +1 x53 +1 x56 +1 x59 +1 x64 +1 x76 +1 x78 +1 x84
  +1 x86 +1 x87 +1 x94 +1 x103 +1 x106 +1 x108 +1 x112 +1 x114 +1 x118 +1 x128 +1 x138 +1 x142 >= +1
 c74: +1 x6 +1 x7 +1 x8 +1 x12 +1 x13 +1 x14 +1 x17 +1 x20 +1 x26 +1 x27 +1 x32 +1 x47 +1 x49 +1 x55 +1 x57
  +1 x67 +1 x78 +1 x81 +1 x87 +1 x100 +1 x103 +1 x104 +1 x106 +1 x107 +1 x110 +1 x119 +1 x122 +1 x137
  +1 x141 +1 x146 +1 x149 >= +1
 c75: +1 x4 +1 x14 +1 x22 +1 x27 +1 x37 +1 x42 +1 x43 +1 x45 +1 x51 +1 x57 +1 x63 +1 x68 +1 x71 +1 x77
  +1 x78 +1 x90 +1 x91 +1 x101 +1 x109 +1 x111 +1 x118 +1 x126 +1 x144 +1 x146 >= +1
 c76: +1 x3 +1 x7 +1 x10 +1 x23 +1 x41 +1 x59 +1 x62 +1 x66 +1 x71 +1 x75 +1 x77 +1 x82 +1 x95 +1 x98
  +1 x99 +1 x111 +1 x123 +1 x128 +1 x129 +1 x142 +1 x145 >= +1
 c77: +1 x2 +1 x15 +1 x19 +1 x26 +1 x28 +1 x51 +1 x52 +1 x71 +1 x74 +1 x75 +1 x80 +1 x86 +1 x94 +1 x95
  +1 x98 +1 x104 +1 x106 +1 x109 +1 x118 +1 x127 +1 x138 +1 x142 +1 x143 >= +1
 c78: +1 x4 +1 x21 +1 x24 +1 x32 +1 x34 +1 x43 +1 x44 +1 x66 +1 x71 +1 x72 +1 x81 +1 x83 +1 x87 +1 x96
  +1 x98 +1 x100 +1 x111 +1 x112 +1 x146 +1 x147 >= +1
 c79: +1 x4 +1 x10 +1 x14 +1 x16 +1 x17 +1 x46 +1 x52 +1 x57 +1 x58 +1 x60 +1 x68 +1 x86 +1 x92 +1 x96
  +1 x103 +1 x112 +1 x113 +1 x116 +1 x117 +1 x123 +1 x138 +1 x140 +1 x142 +1 x149 >= +1
 c80: +1 x5 +1 x7 +1 x10 +1 x13 +1 x22 +1 x28 +1 x30 +1 x36 +1 x45 +1 x48 +1 x49 +1 x55 +1 x58 +1 x60
  +1 x61 +1 x64 +1 x80 +1 x86 +1 x91 +1 x92 +1 x94 +1 x95 +1 x99 +1 x109 +1 x114 +1 x117 +1 x139 >= +1
 c81: +1 x6 +1 x17 +1 x21 +1 x32 +1 x40 +1 x50 +1 x51 +1 x54 +1 x60 +1 x79 +1 x83 +1 x90 +1 x91 +1 x93
  +1 x95 +1 x96 +1 x98 +1 x99 +1 x103 +1 x105 +1 x108 +1 x109 +1 x119 +1 x124 +1 x136 +1 x142 +1 x143
  +1 x149 >= +1
 c82: +1 x3 +1 x10 +1 x20 +1 x27 +1 x30 +1 x33 +1 x38 +1 x52 +1 x65 +1 x66 +1 x69 +1 x73 +1 x76 +1 x85
  +1 x90 +1 x91 +1 x94 +1 x103 +1 x104 +1 x108 +1 x113 +1 x115 +1 x119 +1 x120 +1 x124 +1 x125 +1 x126
  +1 x128 +1 x132 +1 x147 >= +1
 c83: +1 x1 +1 x10 +1 x15 +1 x18 +1 x24 +1 x34 +1 x52 +1 x58 +1 x61 +1 x68 +1 x78 +1 x83 +1 x96 +1 x97
  +1 x114 +1 x115 +1 x123 +1 x131 >= +1
 c84: +1 x2 +1 x18 +1 x22 +1 x23 +1 x31 +1 x34 +1 x42 +1 x46 +1 x48 +1 x53 +1 x58 +1 x68 +1 x89 +1 x102
  +1 x105 +1 x126 +1 x132 +1 x134 +1 x139 >= +1
 c85: +1 x0 +1 x7 +1 x12 +1 x17 +1 x40 +1 x45 +1 x57 +1 x58 +1 x70 +1 x72 +1 x82 +1 x85 +1 x89 +1 x91
  +1 x94 +1 x98 +1 x107 +1 x110 +1 x113 +1 x118 +1 x141 +1 x149 >= +1
 c86: +1 x2 +1 x9 +1 x11 +1 x13 +1 x14 +1 x20 +1 x21 +1 x36 +1 x40 +1 x41 +1 x43 +1 x44 +1 x54 +1 x59
  +1 x63 +1 x68 +1 x83 +1 x85 +1 x89 +1 x92 +1 x98 +1 x112 +1 x119 +1 x122 +1 x127 +1 x140 >= +1
 c87: +1 x4 +1 x6 +1 x13 +1 x21 +1 x27 +1 x33 +1 x37 +1 x49 +1 x55 +1 x57 +1 x63 +1 x65 +1 x71 +1 x89
  +1 x95 +1 x96 +1 x102 +1 x107 +1 x112 +1 x115 +1 x122 +1 x132 +1 x148 >= +1
 c88: +1 x4 +1 x10 +1 x24 +1 x32 +1 x34 +1 x39 +1 x65 +1 x72 +1 x80 +1 x86 +1 x94 +1 x95 +1 x97 +1 x105
  +1 x110 +1 x113 +1 x116 +1 x122 +1 x126 +1 x127 +1 x136 +1 x140 +1 x142 >= +1
 c89: +1 x1 +1 x25 +1 x35 +1 x37 +1 x39 +1 x49 +1 x71 +1 x75 +1 x78 +1 x88 +1 x102 +1 x107 +1 x113 +1 x118
  +1 x129 >= +1
 c90: +1 x0 +1 x10 +1 x11 +1 x19 +1 x20 +1 x27 +1 x43 +1 x48 +1 x50 +1 x51 +1 x54 +1 x55 +1 x80 +1 x83
  +1 x84 +1 x97 +1 x106 +1 x115 +1 x126 +1 x131 +1 x141 >= +1
 c91: +1 x2 +1 x7 +1 x18 +1 x40 +1 x42 +1 x48 +1 x50 +1 x55 +1 x59 +1 x62 +1 x71 +1 x96 +1 x104 +1 x113
  +1 x116 +1 x121 +1 x125 +1 x126 +1 x134 +1 x135 +1 x141 >= +1
 c92: +1 x1 +1 x11 +1 x15 +1 x16 +1 x22 +1 x27 +1 x32 +1 x34 +1 x42 +1 x46 +1 x60 +1 x68 +1 x69 +1 x90
  +1 x94 +1 x96 +1 x97 +1 x100 +1 x110 +1 x114 +1 x118 +1 x119 +1 x126 +1 x127 +1 x134 +1 x141 +1 x149
  >= +1
 c93: +1 x2 +1 x6 +1 x11 +1 x17 +1 x22 +1 x23 +1 x24 +1 x33 +1 x41 +1 x57 +1 x62 +1 x63 +1 x64 +1 x68
  +1 x69 +1 x87 +1 x88 +1 x91 +1 x97 +1 x113 +1 x123 +1 x136 +1 x143 +1 x147 +1 x149 >= +1
 c94: +1 x0 +1 x6 +1 x13 +1 x23 +1 x36 +1 x42 +1 x57 +1 x61 +1 x70 +1 x79 +1 x85 +1 x90 +1 x94 +1 x95
  +1 x123 +1 x127 +1 x137 +1 x142 >= +1
 c95: +1 x0 +1 x15 +1 x24 +1 x33 +1 x47 +1 x55 +1 x57 +1 x59 +1 x64 +1 x72 +1 x74 +1 x76 +1 x105 +1 x107
  +1 x115 +1 x119 +1 x125 +1 x127 +1 x128 +1 x137 >= +1
 c96: +1 x4 +1 x12 +1 x14 +1 x24 +1 x27 +1 x28 +1 x45 +1 x55 +1 x61 +1 x63 +1 x82 +1 x89 +1 x99 +1 x116
  +1 x121 +1 x123 +1 x126 +1 x129 +1 x138 +1 x141 >= +1
 c97: +1 x3 +1 x9 +1 x11 +1 x12 +1 x19 +1 x20 +1 x24 +1 x28 +1 x32 +1 x33 +1 x44 +1 x47 +1 x52 +1 x54
  +1 x61 +1 x63 +1 x69 +1 x71 +1 x79 +1 x81 +1 x87 +1 x89 +1 x94 +1 x98 +1 x103 +1 x106 +1 x108 +1 x116
  +1 x122 +1 x124 +1 x133 +1 x144 >= +1
 c98: +1 x0 +1 x20 +1 x26 +1 x40 +1 x44 +1 x52 +1 x57 +1 x79 +1 x81 +1 x85 +1 x96 +1 x105 +1 x121 +1 x123
  +1 x127 +1 x128 +1 x129 +1 x132 +1 x149 >= +1
 c99: +1 x0 +1 x12 +1 x13 +1 x19 +1 x24 +1 x42 +1 x43 +1 x44 +1 x51 +1 x59 +1 x62 +1 x65 +1 x66 +1 x69
  +1 x72 +1 x73 +1 x75 +1 x92 +1 x97 +1 x122 +1 x130 +1 x132 +1 x134 +1 x142 +1 x143 >= +1
Bounds
 0 <= x0 <= 1
 0 <= x1 <= 1
 0 <= x2 <= 1
 0 <= x3 <= 1
 0 <= x4 <= 1
 0 <= x5 <= 1
 0 <= x6 <= 1
 0 <= x7 <= 1
 0 <= x8 <= 1
 0 <= x9 <= 1
 0 <= x10 <= 1
 0 <= x11 <= 1
 0 <= x12 <= 1
 0 <= x13 <= 1
 0 <= x14 <= 1
 0 <= x15 <= 1
 0 <= x16 <= 1
 0 <= x17 <= 1
 0 <= x18 <= 1
 0 <= x19 <= 1
 0 <= x20 <= 1
 0 <= x21 <= 1
 0 <= x22 <= 1
 0 <= x23 <= 1
 0 <= x24 <= 1
 0 <= x25 <= 1
 0 <= x26 <= 1
 0 <= x27 <= 1
 0 <= x28 <= 1
 0 <= x29 <= 1
 0 <= x30 <= 1
 0 <= x31 <= 1
 0 <= x32 <= 1
 0 <= x33 <= 1
 0 <= x34 <= 1
 0 <= x35 <= 1
 0 <= x36 <= 1
 0 <= x37 <= 1
 0 <= x38 <= 1
 0 <= x39 <= 1
 0 <= x40 <= 1
 0 <= x41 <= 1
 0 <= x42 <= 1
 0 <= x43 <= 1
 0 <= x44 <= 1
 0 <= x45 <= 1
 0 <= x46 <= 1
 0 <= x47 <= 1
 0 <= x48 <= 1
 0 <= x49 <= 1
 0 <= x50 <= 1
 0 <= x51 <= 1
 0 <= x52 <= 1
 0 <= x53 <= 1
 0 <= x54 <= 1
 0 <= x55 <= 1
 0 <= x56 <= 1
 0 <= x57 <= 1
 0 <= x58 <= 1
 0 <= x59 <= 1
 0 <= x60 <= 1
 0 <= x61 <= 1
 0 <= x62 <= 1
 0 <= x63 <= 1
 0 <= x64 <= 1
 0 <= x65 <= 1
 0 <= x66 <= 1
 0 <= x67 <= 1
 0 <= x68 <= 1
 0 <= x69 <= 1
 0 <= x70 <= 1
 0 <= x71 <= 1
 0 <= x72 <= 1
 0 <= x73 <= 1
 0 <= x74 <= 1
 0 <= x75 <= 1
 0 <= x76 <= 1
 0 <= x77 <= 1
 0 <= x78 <= 1
 0 <= x79 <= 1
 0 <= x80 <= 1
 0 <= x81 <= 1
 0 <= x82 <= 1
 0 <= x83 <= 1
 0 <= x84 <= 1
 0 <= x85 <= 1
 0 <= x86 <= 1
 0 <= x87 <= 1
 0 <= x88 <= 1
 0 <= x89 <= 1
 0 <= x90 <= 1
 0 <= x91 <= 1
 0 <= x92 <= 1
 0 <= x93 <= 1
 0 <= x94 <= 1
 0 <= x95 <= 1
 0 <= x96 <= 1
 0 <= x97 <= 1
 0 <= x98 <= 1
 0 <= x99 <= 1
 0 <= x100 <= 1
 0 <= x101 <= 1
 0 <= x102 <= 1
 0 <= x103 <= 1
 0 <= x104 <= 1
 0 <= x105 <= 1
 0 <= x106 <= 1
 0 <= x107 <= 1
 0 <= x108 <= 1
 0 <= x109 <= 1
 0 <= x110 <= 1
 0 <= x111 <= 1
 0 <= x112 <= 1
 0 <= x113 <= 1
 0 <= x114 <= 1
 0 <= x115 <= 1
 0 <= x116 <= 1
 0 <= x117 <= 1
 0 <= x118 <= 1
 0 <= x119 <= 1
 0 <= x120 <= 1
 0 <= x121 <= 1
 0 <= x122 <= 1
 0 <= x123 <= 1
 0 <= x124 <= 1
 0 <= x125 <= 1
 0 <= x126 <= 1
 0 <= x127 <= 1
 0 <= x128 <= 1
 0 <= x129 <= 1
 0 <= x130 <= 1
 0 <= x131 <= 1
 0 <= x132 <= 1
 0 <= x133 <= 1
 0 <= x134 <= 1
 0 <= x135 <= 1
 0 <= x136 <= 1
 0 <= x137 <= 1
 0 <= x138 <= 1
 0 <= x139 <= 1
 0 <= x140 <= 1
 0 <= x141 <= 1
 0 <= x142 <= 1
 0 <= x143 <= 1
 0 <= x144 <= 1
 0 <= x145 <= 1
 0 <= x146 <= 1
 0 <= x147 <= 1
 0 <= x148 <= 1
 0 <= x149 <= 1
Binaries
 x0 x1 x2 x3 x4 x5 x6 x7 x8 x9 x10 x11 x12 x13 x14 x15 x16 x17 x18 x19 x20 x21 x22 x23 x24 x25 x26 x27
 x28 x29 x30 x31 x32 x33 x34 x35 x36 x37 x38 x39 x40 x41 x42 x43 x44 x45 x46 x47 x48 x49 x50 x51 x52 x53
 x54 x55 x56 x57 x58 x59 x60 x61 x62 x63 x64 x65 x66 x67 x68 x69 x70 x71 x72 x73 x74 x75 x76 x77 x78 x79
 x80 x81 x82 x83 x84 x85 x86 x87 x88 x89 x90 x91 x92 x93 x94 x95 x96 x97 x98 x99 x100 x101 x102 x103 x104
 x105 x106 x107 x108 x109 x110 x111 x112 x113 x114 x115 x116 x117 x118 x119 x120 x121 x122 x123 x124 x125
 x126 x127 x128 x129 x130 x131 x132 x133 x134 x135 x136 x137 x138 x139 x140 x141 x142 x143 x144 x145 x146
 x147 x148 x149
End
